; benchmark generated from python API
(set-info :status unknown)
(declare-fun S_5 () Real)
(declare-fun S_4 () Real)
(declare-fun C () Real)
(declare-fun S_0 () Real)
(declare-fun A_0 () Real)
(declare-fun L_0 () Real)
(declare-fun L0 () Real)
(declare-fun S_2 () Real)
(declare-fun L_1 () Real)
(declare-fun A_4 () Real)
(declare-fun S_3 () Real)
(declare-fun S_1 () Real)
(declare-fun A_1 () Real)
(declare-fun A_3 () Real)
(declare-fun L_3 () Real)
(declare-fun L_2 () Real)
(declare-fun A_5 () Real)
(declare-fun B () Real)
(declare-fun A_2 () Real)
(assert
 (let (($x42 (>= L0 0.0)))
 (let (($x306 (>= C 5.0)))
 (let (($x5572 (>= S_5 (+ A_4 (* (- 1.0) L_1)))))
 (let (($x4883 (not (= L_1 L_3))))
 (let (($x59 (= L_1 L_0)))
 (let (($x12806 (or $x59 $x4883 (<= (+ A_3 (* (- 1.0) A_1) (* (- 2.0) C)) 0.0))))
 (let ((?x1835 (* 3.0 C)))
 (let ((?x644 (* (- 1.0) B)))
 (let ((?x579 (* (- 1.0) L_1)))
 (let ((?x8798 (+ A_1 ?x579 ?x644 ?x1835)))
 (let (($x8830 (>= S_5 ?x8798)))
 (let (($x989 (not (<= L_3 L_2))))
 (let (($x69 (= L_2 L_1)))
 (let (($x13184 (or $x69 $x989 (<= (+ A_3 (* (- 1.0) A_2) (* (- 1.0) C)) 0.0))))
 (let (($x9288 (<= (+ A_1 (* (- 1.0) L_0) L_3 (* (- 1.0) A_3) (* 2.0 C)) 0.0)))
 (let (($x1991 (= L_3 L_0)))
 (let (($x1421 (not (= L_0 L_2))))
 (let (($x1978 (= L_3 L_1)))
 (let (($x1210 (not (= L_1 L_2))))
 (let (($x983 (not (<= L_1 L_0))))
 (let (($x13321 (or $x983 $x1210 $x1978 (<= (+ A_2 (* (- 1.0) L_0) L_3 (* (- 1.0) A_3) C) 0.0))))
 (let (($x79 (= L_3 L_2)))
 (let ((?x573 (* (- 1.0) L_0)))
 (let ((?x895 (+ A_0 ?x573)))
 (let ((?x2355 (* (- 3.0) C)))
 (let ((?x400 (* (- 1.0) L_3)))
 (let ((?x9226 (+ ?x644 ?x400 A_3 ?x2355)))
 (let (($x9008 (<= (+ A_1 ?x573 L_2 (* (- 1.0) A_2) C) 0.0)))
 (let (($x1426 (= L_2 L_0)))
 (let (($x856 (not (= L_0 L_1))))
 (let ((?x935 (* 2.0 C)))
 (let ((?x8920 (+ A_1 ?x579 ?x644 ?x935)))
 (let (($x8936 (<= S_3 ?x8920)))
 (let (($x13015 (or $x69 (not (= L_2 (+ A_2 (* (- 1.0) A_1) L_1 (* (- 1.0) C)))) $x8936)))
 (let (($x7556 (<= (+ A_2 (* (- 1.0) A_1) (* (- 1.0) C)) 0.0)))
 (let (($x8392 (= L_2 (+ A_2 (* (- 1.0) A_1) L_1 (* (- 1.0) C)))))
 (let (($x1466 (not (= L_2 L_3))))
 (let (($x41 (>= L_0 L0)))
 (let (($x131 (>= S_1 S_0)))
 (let (($x134 (>= S_2 S_1)))
 (let (($x137 (>= S_3 S_2)))
 (let (($x140 (>= S_4 S_3)))
 (let (($x146 (>= A_2 A_1)))
 (let (($x147 (>= A_3 A_2)))
 (let (($x148 (>= A_4 A_3)))
 (let (($x149 (>= A_5 A_4)))
 (and (<= (+ A_2 (* (- 1.0) L_2)) S_5) (<= ?x895 S_4) $x149 $x148 $x147 $x146 $x140 $x137 $x134 $x131 $x41 (>= S_2 (+ A_1 ?x579 ?x644)) (or $x79 (<= S_3 (+ A_3 ?x400 ?x644))) (or $x59 (<= S_1 (+ A_1 ?x579 ?x644))) (>= S_0 (+ ?x644 ?x579 A_1 (* (- 2.0) C))) (>= S_3 (+ A_1 ?x579 ?x644 C)) (or $x59 $x983) (or $x59 (<= S_2 (+ A_1 ?x579 ?x644 C))) (not (<= (+ A_1 ?x579) S_4)) (or (>= S_5 (+ A_3 (* (- 1.0) L_2) ?x644 C)) $x1466) (or $x79 $x989) (>= S_5 (+ A_3 ?x400 ?x644 C)) (or $x59 $x79 (= (+ A_3 ?x400) (+ A_1 ?x579 ?x935))) (or $x79 (<= S_5 (+ A_3 ?x400 ?x644 ?x935))) (<= (+ ?x644 ?x579 A_1 (* (- 1.0) C)) ?x895) (>= S_4 (+ A_3 ?x400 ?x644)) (>= S_1 (+ ?x644 ?x579 A_1 (* (- 1.0) C))) (or $x69 (not $x7556)) (or $x59 $x69 $x8392) (or $x59 (<= S_0 (+ ?x644 ?x579 A_1 (* (- 1.0) C)))) (or $x59 $x1210 $x7556) (>= S_3 (+ A_2 (* (- 1.0) L_2) ?x644)) (or $x69 (<= S_1 (+ ?x644 (* (- 1.0) L_2) A_2 (* (- 1.0) C)))) (or $x69 (<= S_0 (+ ?x644 (* (- 1.0) L_2) A_2 (* (- 2.0) C)))) $x13015 (>= S_2 (+ ?x644 (* (- 1.0) L_2) A_2 (* (- 1.0) C))) (or $x1426 (not $x9008) (<= S_3 (+ A_2 (* (- 1.0) L_2) ?x644 C))) (<= (+ ?x644 (* (- 1.0) L_2) A_2 (* (- 2.0) C)) ?x895) (>= S_1 (+ ?x644 (* (- 1.0) L_2) A_2 (* (- 2.0) C))) (or (not (<= L_2 L_0)) $x1426) (or $x79 (<= S_4 (+ A_3 ?x400 ?x644 C))) (or $x69 (<= S_2 (+ A_2 (* (- 1.0) L_2) ?x644))) (or $x69 $x79 (= (+ A_3 ?x400) (+ A_2 (* (- 1.0) L_2) C))) (or $x856 $x1426 $x9008) (or $x69 (<= S_5 (+ A_2 (* (- 1.0) L_2) ?x644 ?x1835))) (<= (+ C S_1 (* (- 1.0) S_3)) 0.0) (>= S_3 (+ ?x644 ?x400 A_3 (* (- 1.0) C))) (>= S_2 (+ ?x644 ?x400 A_3 (* (- 2.0) C))) (or $x1210 $x1978 (<= S_0 ?x9226)) (or $x1210 $x1978 (<= S_1 (+ ?x644 ?x400 A_3 (* (- 2.0) C)))) (<= ?x9226 ?x895) (or $x79 (<= S_2 (+ ?x644 ?x400 A_3 (* (- 1.0) C)))) (>= S_1 ?x9226) (>= S_0 (+ ?x644 ?x400 A_3 (* (- 4.0) C))) $x13321 (or $x1421 $x1991 $x9288) (or $x59 $x8936) (or $x59 (<= S_5 (+ A_1 ?x579 ?x644 (* 4.0 C)))) (>= S_4 (+ A_2 (* (- 1.0) L_2) ?x644 C)) (>= S_0 (+ ?x644 (* (- 1.0) L_2) A_2 ?x2355)) (or $x59 (<= S_4 ?x8798)) $x13184 (or $x8830 (<= (+ A_4 (* (- 1.0) A_1) ?x2355) 0.0)) (>= S_4 ?x8920) (or (<= (+ A_4 (* (- 1.0) A_3) (* (- 1.0) C)) 0.0) $x8830) (or $x8830 (not (<= S_4 (+ A_3 ?x579 ?x644 C)))) (or $x5572 $x8830) (<= S_5 (+ A_4 ?x579 C)) (<= S_5 (+ A_5 (* (- 1.0) L_2))) (<= (+ ?x935 S_1 (* (- 1.0) S_4)) 0.0) $x12806 (<= (+ (* (- 2.0) C) (* (- 1.0) S_2) S_3) 0.0) (<= (+ ?x935 (* (- 1.0) S_3) S_0) 0.0) (<= (+ ?x1835 (* (- 1.0) S_4) S_0) 0.0) (<= (+ C S_2 (* (- 1.0) S_4)) 0.0) (<= (+ (* (- 2.0) C) L_0 (* (- 1.0) A_0) S_2) 0.0) (<= (+ C (* (- 1.0) S_2) S_0) 0.0) (<= (+ (* (- 6.0) C) S_5 (* (- 1.0) S_0)) 0.0) (<= (+ ?x2355 L_0 (* (- 1.0) A_0) S_3) 0.0) (<= (+ (* (- 2.0) C) S_2 (* (- 1.0) S_1)) 0.0) (<= (+ ?x2355 S_2 (* (- 1.0) S_0)) 0.0) (<= (+ ?x2355 (* (- 1.0) S_1) S_3) 0.0) (or $x5572 (<= (+ C S_3 (* (- 1.0) S_5)) 0.0)) (<= (+ (* (- 1.0) C) L_0 (* (- 1.0) A_0) S_1) 0.0) (<= (+ (* (- 4.0) C) (* (- 1.0) S_2) S_5) 0.0) (<= (+ (* (- 5.0) C) L_0 (* (- 1.0) A_0) S_5) 0.0) (<= (+ (* (- 2.0) C) S_1 (* (- 1.0) S_0)) 0.0) (<= (+ (* (- 5.0) C) (* (- 1.0) S_1) S_5) 0.0) (<= (+ (* (- 4.0) C) S_3 (* (- 1.0) S_0)) 0.0) (or $x5572 (<= (+ ?x1835 S_1 (* (- 1.0) S_5)) 0.0)) (<= (+ (* (- 2.0) C) (* (- 1.0) S_3) S_4) 0.0) (<= (+ (* (- 5.0) C) S_4 (* (- 1.0) S_0)) 0.0) (<= (+ ?x2355 (* (- 1.0) S_2) S_4) 0.0) (<= (+ (* (- 4.0) C) (* (- 1.0) S_1) S_4) 0.0) (<= (+ (* (- 4.0) C) L_0 (* (- 1.0) A_0) S_4) 0.0) (<= (+ ?x2355 (* (- 1.0) S_3) S_5) 0.0) (or $x5572 (<= (+ (* 4.0 C) (* (- 1.0) S_5) S_0) 0.0)) (or $x5572 (<= (+ ?x935 S_2 (* (- 1.0) S_5)) 0.0)) $x306 $x42 (<= (+ L_0 (* (- 1.0) A_0) S_0) 0.0) (<= (+ (* (- 2.0) C) (* (- 1.0) S_4) S_5) 0.0)))))))))))))))))))))))))))))))))))))))))))))))))
(check-sat)
